NAME : prob35d
TYPE : PDTSP
DIMENSION : 71
EDGE_WEIGHT_TYPE : EUC_2D
NODE_COORD_SECTION
1 706 778
2 698 204
3 129 176
4 505 536
5 865 678
6 821 222
7 594 334
8 587 317
9 363 992
10 37 808
11 542 108
12 599 231
13 922 947
14 806 662
15 985 267
16 387 135
17 198 671
18 18 60
19 442 126
20 881 484
21 96 36
22 142 485
23 474 93
24 207 800
25 184 602
26 547 968
27 1 374
28 519 251
29 191 759
30 932 911
31 160 73
32 620 809
33 271 148
34 523 838
35 660 18
36 253 299
37 768 924
38 942 814
39 679 639
40 856 675
41 482 205
42 408 227
43 124 171
44 471 16
45 54 321
46 270 281
47 690 212
48 463 72
49 896 114
50 669 797
51 512 453
52 654 667
53 294 593
54 523 870
55 375 989
56 515 900
57 682 697
58 924 513
59 392 159
60 84 880
61 824 800
62 447 674
63 752 320
64 348 689
65 603 851
66 860 900
67 671 297
68 935 364
69 410 714
70 203 508
71 943 515
PICKUP_AND_DELIVERY_SECTION
1 0 0 0 0 0 0
2 0 0 0 0 37 0
3 0 0 0 0 38 0
4 0 0 0 0 39 0
5 0 0 0 0 40 0
6 0 0 0 0 41 0
7 0 0 0 0 42 0
8 0 0 0 0 43 0
9 0 0 0 0 44 0
10 0 0 0 0 45 0
11 0 0 0 0 46 0
12 0 0 0 0 47 0
13 0 0 0 0 48 0
14 0 0 0 0 49 0
15 0 0 0 0 50 0
16 0 0 0 0 51 0
17 0 0 0 0 52 0
18 0 0 0 0 53 0
19 0 0 0 0 54 0
20 0 0 0 0 55 0
21 0 0 0 0 56 0
22 0 0 0 0 57 0
23 0 0 0 0 58 0
24 0 0 0 0 59 0
25 0 0 0 0 60 0
26 0 0 0 0 61 0
27 0 0 0 0 62 0
28 0 0 0 0 63 0
29 0 0 0 0 64 0
30 0 0 0 0 65 0
31 0 0 0 0 66 0
32 0 0 0 0 67 0
33 0 0 0 0 68 0
34 0 0 0 0 69 0
35 0 0 0 0 70 0
36 0 0 0 0 71 0
37 0 0 0 0 0 2
38 0 0 0 0 0 3
39 0 0 0 0 0 4
40 0 0 0 0 0 5
41 0 0 0 0 0 6
42 0 0 0 0 0 7
43 0 0 0 0 0 8
44 0 0 0 0 0 9
45 0 0 0 0 0 10
46 0 0 0 0 0 11
47 0 0 0 0 0 12
48 0 0 0 0 0 13
49 0 0 0 0 0 14
50 0 0 0 0 0 15
51 0 0 0 0 0 16
52 0 0 0 0 0 17
53 0 0 0 0 0 18
54 0 0 0 0 0 19
55 0 0 0 0 0 20
56 0 0 0 0 0 21
57 0 0 0 0 0 22
58 0 0 0 0 0 23
59 0 0 0 0 0 24
60 0 0 0 0 0 25
61 0 0 0 0 0 26
62 0 0 0 0 0 27
63 0 0 0 0 0 28
64 0 0 0 0 0 29
65 0 0 0 0 0 30
66 0 0 0 0 0 31
67 0 0 0 0 0 32
68 0 0 0 0 0 33
69 0 0 0 0 0 34
70 0 0 0 0 0 35
71 0 0 0 0 0 36
DEPOT_SECTION
1 
-1
EOF
